Route #1: 41 2 10 47 17 14
Route #2: 16 33 46 13 30 21 29 28
Route #3: 45 27 15 42 11 4 24 9 34
Route #4: 40 7 8 39 26 20 3 37
Route #5: 32 36 38 19 25 22 6
Route #6: 18 35 44
Route #7: 12 5 1 31 43 23
Cost 1073
Time 0.067369
